; DUP1 SWAP3 SWAP2 SWAP1 PUSH cw_1 SWAP1 => SWAP2 SWAP1 PUSH cw_1 DUP4
(set-option :produce-proofs true)
; 
(set-info :status unknown)
(declare-fun storage_t ((_ BitVec 256) (_ BitVec 256) (_ BitVec 256) (_ BitVec 256) Int (_ BitVec 256)) (_ BitVec 256))
(declare-fun w_1 () (_ BitVec 256))
(declare-fun storage_s ((_ BitVec 256) (_ BitVec 256) (_ BitVec 256) (_ BitVec 256) Int (_ BitVec 256)) (_ BitVec 256))
(declare-fun exc_halt_t (Int) Bool)
(declare-fun exc_halt_s (Int) Bool)
(declare-fun sc_t (Int) (_ BitVec 6))
(declare-fun stack_t ((_ BitVec 256) (_ BitVec 256) (_ BitVec 256) (_ BitVec 256) Int (_ BitVec 6)) (_ BitVec 256))
(declare-fun stack_s ((_ BitVec 256) (_ BitVec 256) (_ BitVec 256) (_ BitVec 256) Int (_ BitVec 6)) (_ BitVec 256))
(declare-fun sc_s (Int) (_ BitVec 6))
(declare-fun used_gas_t ((_ BitVec 256) (_ BitVec 256) (_ BitVec 256) (_ BitVec 256) Int) Int)
(declare-fun used_gas_s ((_ BitVec 256) (_ BitVec 256) (_ BitVec 256) (_ BitVec 256) Int) Int)
(assert
 (exists ((x_0 (_ BitVec 256)) (x_1 (_ BitVec 256)) (x_2 (_ BitVec 256)) )(let (($x7523 (forall ((w (_ BitVec 256)) )(let ((?x302 (storage_t x_0 x_1 x_2 w_1 4 w)))
 (let ((?x10341 (storage_s x_0 x_1 x_2 w_1 6 w)))
 (= ?x10341 ?x302))))
 ))
 (let (($x3723 (exc_halt_t 4)))
 (let (($x772 (exc_halt_s 6)))
 (let (($x10342 (= $x772 $x3723)))
 (let (($x4393 (forall ((n (_ BitVec 6)) )(let ((?x3757 (sc_t 4)))
 (let (($x9035 (bvsle ?x3757 n)))
 (let ((?x8630 (stack_t x_0 x_1 x_2 w_1 4 n)))
 (let ((?x3957 (stack_s x_0 x_1 x_2 w_1 6 n)))
 (let (($x1382 (= ?x3957 ?x8630)))
 (or $x1382 $x9035)))))))
 ))
 (let ((?x3757 (sc_t 4)))
 (let ((?x926 (sc_s 6)))
 (let (($x11286 (= ?x926 ?x3757)))
 (let ((?x8523 (used_gas_t x_0 x_1 x_2 w_1 0)))
 (let ((?x7513 (used_gas_s x_0 x_1 x_2 w_1 0)))
 (let (($x2828 (= ?x7513 ?x8523)))
 (let (($x8531 (forall ((w (_ BitVec 256)) )(let ((?x1184 (storage_t x_0 x_1 x_2 w_1 0 w)))
 (let ((?x10374 (storage_s x_0 x_1 x_2 w_1 0 w)))
 (= ?x10374 ?x1184))))
 ))
 (let (($x56 (exc_halt_t 0)))
 (let (($x57 (exc_halt_s 0)))
 (let (($x58 (= $x57 $x56)))
 (let (($x2218 (forall ((n (_ BitVec 6)) )(let ((?x7778 (stack_t x_0 x_1 x_2 w_1 0 n)))
 (let ((?x10446 (stack_s x_0 x_1 x_2 w_1 0 n)))
 (let (($x9064 (= ?x10446 ?x7778)))
 (let ((?x63 (sc_t 0)))
 (let (($x5025 (bvsle ?x63 n)))
 (or $x5025 $x9064)))))))
 ))
 (let ((?x63 (sc_t 0)))
 (let ((?x72 (sc_s 0)))
 (let (($x73 (= ?x72 ?x63)))
 (let (($x9274 (not (bvsle (_ bv0 6) (bvadd (_ bv60 6) (sc_t 3))))))
 (let (($x2900 (not (= ((_ extract 6 6) (bvadd (_ bv1 7) (concat (_ bv0 1) (sc_t 3)))) (_ bv0 1)))))
 (let (($x1097 (exc_halt_t 3)))
 (let (($x1378 (forall ((w (_ BitVec 256)) )(let ((?x7655 (storage_t x_0 x_1 x_2 w_1 3 w)))
 (let ((?x302 (storage_t x_0 x_1 x_2 w_1 4 w)))
 (= ?x302 ?x7655))))
 ))
 (let (($x9097 (forall ((n (_ BitVec 6)) )(let ((?x6011 (sc_t 3)))
 (let ((?x8701 (bvadd (_ bv60 6) ?x6011)))
 (let (($x11104 (bvsle ?x8701 n)))
 (let ((?x742 (stack_t x_0 x_1 x_2 w_1 3 n)))
 (let ((?x8630 (stack_t x_0 x_1 x_2 w_1 4 n)))
 (or (= ?x8630 ?x742) $x11104)))))))
 ))
 (let (($x9090 (= ?x3757 (bvadd (_ bv1 6) (sc_t 3)))))
 (let (($x4543 (= (used_gas_t x_0 x_1 x_2 w_1 4) (+ 3 (used_gas_t x_0 x_1 x_2 w_1 3)))))
 (let (($x2430 (= (stack_t x_0 x_1 x_2 w_1 4 (bvadd (_ bv63 6) (sc_t 3))) (stack_t x_0 x_1 x_2 w_1 3 (bvadd (_ bv63 6) (sc_t 3))))))
 (let (($x10659 (= (stack_t x_0 x_1 x_2 w_1 4 (bvadd (_ bv62 6) (sc_t 3))) (stack_t x_0 x_1 x_2 w_1 3 (bvadd (_ bv62 6) (sc_t 3))))))
 (let (($x2450 (= (stack_t x_0 x_1 x_2 w_1 4 (bvadd (_ bv61 6) (sc_t 3))) (stack_t x_0 x_1 x_2 w_1 3 (bvadd (_ bv61 6) (sc_t 3))))))
 (let ((?x6011 (sc_t 3)))
 (let ((?x8701 (bvadd (_ bv60 6) ?x6011)))
 (let ((?x1834 (stack_t x_0 x_1 x_2 w_1 3 ?x8701)))
 (let (($x3975 (not (= ((_ extract 6 6) (bvadd (_ bv1 7) (concat (_ bv0 1) (sc_t 2)))) (_ bv0 1)))))
 (let (($x5252 (exc_halt_t 2)))
 (let (($x7213 (= $x1097 (or $x5252 $x3975))))
 (let (($x8034 (forall ((w (_ BitVec 256)) )(let ((?x5951 (storage_t x_0 x_1 x_2 w_1 2 w)))
 (let ((?x7655 (storage_t x_0 x_1 x_2 w_1 3 w)))
 (= ?x7655 ?x5951))))
 ))
 (let (($x7372 (forall ((n (_ BitVec 6)) )(let ((?x10206 (stack_t x_0 x_1 x_2 w_1 2 n)))
 (let ((?x742 (stack_t x_0 x_1 x_2 w_1 3 n)))
 (let ((?x2714 (sc_t 2)))
 (let (($x1985 (bvsle ?x2714 n)))
 (or $x1985 (= ?x742 ?x10206)))))))
 ))
 (let (($x1161 (= ?x6011 (bvadd (_ bv1 6) (sc_t 2)))))
 (let ((?x4447 (used_gas_t x_0 x_1 x_2 w_1 3)))
 (let (($x10528 (= $x5252 (or (exc_halt_t 1) (not (bvsle (_ bv0 6) (bvadd (_ bv62 6) (sc_t 1))))))))
 (let (($x9566 (forall ((w (_ BitVec 256)) )(let ((?x7423 (storage_t x_0 x_1 x_2 w_1 1 w)))
 (let ((?x5951 (storage_t x_0 x_1 x_2 w_1 2 w)))
 (= ?x5951 ?x7423))))
 ))
 (let (($x14 (forall ((n (_ BitVec 6)) )(let ((?x6052 (sc_t 1)))
 (let ((?x11677 (bvadd (_ bv62 6) ?x6052)))
 (let (($x6826 (bvsle ?x11677 n)))
 (let ((?x8009 (stack_t x_0 x_1 x_2 w_1 1 n)))
 (let ((?x10206 (stack_t x_0 x_1 x_2 w_1 2 n)))
 (or (= ?x10206 ?x8009) $x6826)))))))
 ))
 (let ((?x6052 (sc_t 1)))
 (let ((?x2714 (sc_t 2)))
 (let (($x8971 (= ?x2714 ?x6052)))
 (let ((?x6378 (used_gas_t x_0 x_1 x_2 w_1 2)))
 (let ((?x5428 (bvadd (_ bv63 6) ?x6052)))
 (let ((?x1599 (stack_t x_0 x_1 x_2 w_1 1 ?x5428)))
 (let ((?x11677 (bvadd (_ bv62 6) ?x6052)))
 (let ((?x8231 (stack_t x_0 x_1 x_2 w_1 1 ?x11677)))
 (let (($x11712 (forall ((w (_ BitVec 256)) )(let ((?x1184 (storage_t x_0 x_1 x_2 w_1 0 w)))
 (let ((?x7423 (storage_t x_0 x_1 x_2 w_1 1 w)))
 (= ?x7423 ?x1184))))
 ))
 (let (($x3175 (forall ((n (_ BitVec 6)) )(let ((?x63 (sc_t 0)))
 (let ((?x2447 (bvadd (_ bv61 6) ?x63)))
 (let (($x5181 (bvsle ?x2447 n)))
 (let ((?x7778 (stack_t x_0 x_1 x_2 w_1 0 n)))
 (let ((?x8009 (stack_t x_0 x_1 x_2 w_1 1 n)))
 (or (= ?x8009 ?x7778) $x5181)))))))
 ))
 (let (($x2842 (= ?x6052 ?x63)))
 (let (($x9685 (= (stack_t x_0 x_1 x_2 w_1 1 (bvadd (_ bv61 6) ?x6052)) (stack_t x_0 x_1 x_2 w_1 0 (bvadd (_ bv63 6) ?x63)))))
 (let (($x1208 (= $x772 (or (exc_halt_s 5) (not (bvsle (_ bv0 6) (bvadd (_ bv62 6) (sc_s 5))))))))
 (let (($x8428 (forall ((w (_ BitVec 256)) )(let ((?x3147 (storage_s x_0 x_1 x_2 w_1 5 w)))
 (let ((?x10341 (storage_s x_0 x_1 x_2 w_1 6 w)))
 (= ?x10341 ?x3147))))
 ))
 (let (($x10706 (forall ((n (_ BitVec 6)) )(let ((?x805 (sc_s 5)))
 (let ((?x2282 (bvadd (_ bv62 6) ?x805)))
 (let (($x5998 (bvsle ?x2282 n)))
 (let ((?x9261 (stack_s x_0 x_1 x_2 w_1 5 n)))
 (let ((?x3957 (stack_s x_0 x_1 x_2 w_1 6 n)))
 (or (= ?x3957 ?x9261) $x5998)))))))
 ))
 (let ((?x805 (sc_s 5)))
 (let (($x6427 (= ?x926 ?x805)))
 (let (($x11322 (= (used_gas_s x_0 x_1 x_2 w_1 6) (+ 3 (used_gas_s x_0 x_1 x_2 w_1 5)))))
 (let (($x1857 (= (stack_s x_0 x_1 x_2 w_1 6 (bvadd (_ bv62 6) ?x926)) (stack_s x_0 x_1 x_2 w_1 5 (bvadd (_ bv63 6) ?x805)))))
 (let (($x4394 (= (stack_s x_0 x_1 x_2 w_1 6 (bvadd (_ bv63 6) ?x926)) (stack_s x_0 x_1 x_2 w_1 5 (bvadd (_ bv62 6) ?x805)))))
 (let (($x4535 (not (= ((_ extract 6 6) (bvadd (_ bv1 7) (concat (_ bv0 1) (sc_s 4)))) (_ bv0 1)))))
 (let (($x7172 (exc_halt_s 4)))
 (let (($x3979 (exc_halt_s 5)))
 (let (($x10122 (= $x3979 (or $x7172 $x4535))))
 (let (($x2627 (forall ((w (_ BitVec 256)) )(let ((?x6229 (storage_s x_0 x_1 x_2 w_1 4 w)))
 (let ((?x3147 (storage_s x_0 x_1 x_2 w_1 5 w)))
 (= ?x3147 ?x6229))))
 ))
 (let (($x6551 (forall ((n (_ BitVec 6)) )(let ((?x4305 (sc_s 4)))
 (let (($x10405 (bvsle ?x4305 n)))
 (let ((?x1791 (stack_s x_0 x_1 x_2 w_1 4 n)))
 (let ((?x9261 (stack_s x_0 x_1 x_2 w_1 5 n)))
 (or (= ?x9261 ?x1791) $x10405))))))
 ))
 (let (($x11113 (= ?x805 (bvadd (_ bv1 6) (sc_s 4)))))
 (let ((?x1987 (used_gas_s x_0 x_1 x_2 w_1 5)))
 (let (($x8182 (= $x7172 (or (exc_halt_s 3) (not (bvsle (_ bv0 6) (bvadd (_ bv62 6) (sc_s 3))))))))
 (let (($x1282 (forall ((w (_ BitVec 256)) )(let ((?x535 (storage_s x_0 x_1 x_2 w_1 3 w)))
 (let ((?x6229 (storage_s x_0 x_1 x_2 w_1 4 w)))
 (= ?x6229 ?x535))))
 ))
 (let (($x8832 (forall ((n (_ BitVec 6)) )(let ((?x3064 (stack_s x_0 x_1 x_2 w_1 3 n)))
 (let ((?x1791 (stack_s x_0 x_1 x_2 w_1 4 n)))
 (let ((?x275 (sc_s 3)))
 (let ((?x7283 (bvadd (_ bv62 6) ?x275)))
 (let (($x49 (bvsle ?x7283 n)))
 (or $x49 (= ?x1791 ?x3064))))))))
 ))
 (let ((?x275 (sc_s 3)))
 (let ((?x4305 (sc_s 4)))
 (let (($x5056 (= ?x4305 ?x275)))
 (let ((?x4119 (used_gas_s x_0 x_1 x_2 w_1 4)))
 (let ((?x7071 (bvadd (_ bv63 6) ?x275)))
 (let ((?x8764 (stack_s x_0 x_1 x_2 w_1 3 ?x7071)))
 (let ((?x7283 (bvadd (_ bv62 6) ?x275)))
 (let ((?x8276 (stack_s x_0 x_1 x_2 w_1 3 ?x7283)))
 (let (($x292 (exc_halt_s 3)))
 (let (($x6709 (= $x292 (or (exc_halt_s 2) (not (bvsle (_ bv0 6) (bvadd (_ bv61 6) (sc_s 2))))))))
 (let (($x8668 (forall ((w (_ BitVec 256)) )(let ((?x7996 (storage_s x_0 x_1 x_2 w_1 2 w)))
 (let ((?x535 (storage_s x_0 x_1 x_2 w_1 3 w)))
 (= ?x535 ?x7996))))
 ))
 (let (($x10744 (forall ((n (_ BitVec 6)) )(let ((?x218 (sc_s 2)))
 (let ((?x1775 (bvadd (_ bv61 6) ?x218)))
 (let (($x11160 (bvsle ?x1775 n)))
 (let ((?x8272 (stack_s x_0 x_1 x_2 w_1 2 n)))
 (let ((?x3064 (stack_s x_0 x_1 x_2 w_1 3 n)))
 (or (= ?x3064 ?x8272) $x11160)))))))
 ))
 (let ((?x218 (sc_s 2)))
 (let (($x5891 (= ?x275 ?x218)))
 (let ((?x3897 (used_gas_s x_0 x_1 x_2 w_1 3)))
 (let ((?x5148 (bvadd (_ bv63 6) ?x218)))
 (let ((?x883 (stack_s x_0 x_1 x_2 w_1 2 ?x5148)))
 (let (($x247 (exc_halt_s 2)))
 (let (($x10711 (= $x247 (or (exc_halt_s 1) (not (bvsle (_ bv0 6) (bvadd (_ bv60 6) (sc_s 1))))))))
 (let (($x6958 (forall ((w (_ BitVec 256)) )(let ((?x8655 (storage_s x_0 x_1 x_2 w_1 1 w)))
 (let ((?x7996 (storage_s x_0 x_1 x_2 w_1 2 w)))
 (= ?x7996 ?x8655))))
 ))
 (let (($x9324 (forall ((n (_ BitVec 6)) )(let ((?x2546 (stack_s x_0 x_1 x_2 w_1 1 n)))
 (let ((?x8272 (stack_s x_0 x_1 x_2 w_1 2 n)))
 (or (bvsle (bvadd (_ bv60 6) (sc_s 1)) n) (= ?x8272 ?x2546)))))
 ))
 (let ((?x154 (sc_s 1)))
 (let (($x7086 (= ?x218 ?x154)))
 (let ((?x5486 (used_gas_s x_0 x_1 x_2 w_1 2)))
 (let ((?x7367 (bvadd (_ bv62 6) ?x218)))
 (let ((?x7196 (stack_s x_0 x_1 x_2 w_1 2 ?x7367)))
 (let ((?x1775 (bvadd (_ bv61 6) ?x218)))
 (let ((?x2395 (stack_s x_0 x_1 x_2 w_1 2 ?x1775)))
 (let ((?x9976 (bvadd (_ bv63 6) ?x154)))
 (let ((?x2145 (stack_s x_0 x_1 x_2 w_1 1 ?x9976)))
 (let (($x7254 (not (bvsle (_ bv0 6) (bvadd (_ bv63 6) ?x72)))))
 (let (($x2693 (not (= ((_ extract 6 6) (bvadd (_ bv1 7) (concat (_ bv0 1) ?x72))) (_ bv0 1)))))
 (let (($x189 (exc_halt_s 1)))
 (let (($x4642 (forall ((w (_ BitVec 256)) )(let ((?x10374 (storage_s x_0 x_1 x_2 w_1 0 w)))
 (let ((?x8655 (storage_s x_0 x_1 x_2 w_1 1 w)))
 (= ?x8655 ?x10374))))
 ))
 (let (($x5137 (forall ((n (_ BitVec 6)) )(let ((?x10446 (stack_s x_0 x_1 x_2 w_1 0 n)))
 (let ((?x2546 (stack_s x_0 x_1 x_2 w_1 1 n)))
 (let ((?x72 (sc_s 0)))
 (let ((?x4363 (bvadd (_ bv63 6) ?x72)))
 (let (($x8642 (bvsle ?x4363 n)))
 (or $x8642 (= ?x2546 ?x10446))))))))
 ))
 (let (($x7749 (= ?x154 (bvadd (_ bv1 6) ?x72))))
 (let ((?x4363 (bvadd (_ bv63 6) ?x72)))
 (let ((?x7462 (stack_s x_0 x_1 x_2 w_1 0 ?x4363)))
 (let (($x11538 (forall ((w (_ BitVec 256)) )(let ((?x10374 (storage_s x_0 x_1 x_2 w_1 0 w)))
 (= ?x10374 (_ bv0 256))))
 ))
 (let (($x6042 (= ?x7513 0)))
 (let (($x5167 (not $x57)))
 (let (($x700 (= (stack_s x_0 x_1 x_2 w_1 0 (_ bv2 6)) x_2)))
 (let (($x11013 (= (stack_s x_0 x_1 x_2 w_1 0 (_ bv1 6)) x_1)))
 (let (($x2396 (= (stack_s x_0 x_1 x_2 w_1 0 (_ bv0 6)) x_0)))
 (let (($x5315 (= ?x72 (_ bv3 6))))
 (and $x5315 $x2396 $x11013 $x700 $x5167 $x6042 $x11538 (= ?x2145 ?x7462) (= (stack_s x_0 x_1 x_2 w_1 1 ?x4363) ?x7462) (= (used_gas_s x_0 x_1 x_2 w_1 1) (+ 3 ?x7513)) $x7749 $x5137 $x4642 (= $x189 (or $x57 $x2693 $x7254)) (= ?x883 (stack_s x_0 x_1 x_2 w_1 1 (bvadd (_ bv60 6) ?x154))) (= (stack_s x_0 x_1 x_2 w_1 2 (bvadd (_ bv60 6) ?x218)) ?x2145) (= ?x2395 (stack_s x_0 x_1 x_2 w_1 1 (bvadd (_ bv61 6) ?x154))) (= ?x7196 (stack_s x_0 x_1 x_2 w_1 1 (bvadd (_ bv62 6) ?x154))) (= ?x5486 (+ 3 (used_gas_s x_0 x_1 x_2 w_1 1))) $x7086 $x9324 $x6958 $x10711 (= ?x8764 ?x2395) (= (stack_s x_0 x_1 x_2 w_1 3 (bvadd (_ bv61 6) ?x275)) ?x883) (= ?x8276 ?x7196) (= ?x3897 (+ 3 ?x5486)) $x5891 $x10744 $x8668 $x6709 (= (stack_s x_0 x_1 x_2 w_1 4 (bvadd (_ bv63 6) ?x4305)) ?x8276) (= (stack_s x_0 x_1 x_2 w_1 4 (bvadd (_ bv62 6) ?x4305)) ?x8764) (= ?x4119 (+ 3 ?x3897)) $x5056 $x8832 $x1282 $x8182 (= (stack_s x_0 x_1 x_2 w_1 5 ?x4305) w_1) (= ?x1987 (+ 3 ?x4119)) $x11113 $x6551 $x2627 $x10122 $x4394 $x1857 $x11322 $x6427 $x10706 $x8428 $x1208 (= ?x1599 (stack_t x_0 x_1 x_2 w_1 0 (bvadd (_ bv61 6) ?x63))) $x9685 (= ?x8231 (stack_t x_0 x_1 x_2 w_1 0 (bvadd (_ bv62 6) ?x63))) (= (used_gas_t x_0 x_1 x_2 w_1 1) (+ 3 ?x8523)) $x2842 $x3175 $x11712 (= (exc_halt_t 1) (or $x56 (not (bvsle (_ bv0 6) (bvadd (_ bv61 6) ?x63))))) (= (stack_t x_0 x_1 x_2 w_1 2 (bvadd (_ bv63 6) ?x2714)) ?x8231) (= (stack_t x_0 x_1 x_2 w_1 2 (bvadd (_ bv62 6) ?x2714)) ?x1599) (= ?x6378 (+ 3 (used_gas_t x_0 x_1 x_2 w_1 1))) $x8971 $x14 $x9566 $x10528 (= (stack_t x_0 x_1 x_2 w_1 3 ?x2714) w_1) (= ?x4447 (+ 3 ?x6378)) $x1161 $x7372 $x8034 $x7213 (= (stack_t x_0 x_1 x_2 w_1 4 (bvadd (_ bv63 6) ?x3757)) ?x1834) (= (stack_t x_0 x_1 x_2 w_1 4 ?x8701) ?x1834) $x2450 $x10659 $x2430 $x4543 $x9090 $x9097 $x1378 (= $x3723 (or $x1097 $x2900 $x9274)) $x73 $x2218 $x58 $x8531 $x2828 (not (and $x11286 $x4393 $x10342 $x7523))))))))))))))))))))))))))))))))))))))))))))))))))))))))))))))))))))))))))))))))))))))))))))))))))))))))))))))))))))))))))
 )
(check-sat)
(get-proof)
